data/results/2026_03_24_00_33_20_set_set_set_s001_g003_max.sol
# Objective value = 74
c_n0n1n2n3n4 5
c_n0n1n3n4n5 5
c_n1n2n3n4 3
c_n0n2n3n4 3
c_n0n1n3n4 4
c_n0n1n2n4 3
c_n0n1n2n3 4
c_n1n3n4n5 3
c_n0n3n4n5 3
c_n0n1n4n5 4
c_n0n1n3n5 3
c_n2n3n4 2
c_n1n3n4 2
c_n1n2n4 1
c_n1n2n3 3
c_n0n3n4 2
c_n0n2n4 2
c_n0n2n3 2
c_n0n1n4 3
c_n0n1n3 3
c_n0n1n2 2
c_n3n4n5 2
c_n1n4n5 2
c_n1n3n5 2
c_n0n4n5 3
c_n0n3n5 1
c_n0n1n5 2
y_n0n1 1
y_n1n2 1
y_n0n2 1
y_n1n3 1
y_n0n3 1
y_n1n4 0
y_n0n4 0
y_n1n5 0
y_n0n5 0
y_n2n3 0
y_n2n4 0
y_n2n5 0
y_n3n4 0
y_n3n5 0
y_n4n5 0
pos_n0 2
pos_n1 3
pos_n2 5
pos_n3 4
pos_n4 1
pos_n5 0
z_n2n3 1
z_n1n3 1
z_n3n5 0
z_n3n4 0
z_n1n2 0
z_n2n5 0
z_n2n4 0
z_n1n5 0
z_n1n4 0
z_n4n5 1
z_n0n5 0
z_n0n3 0
z_n0n4 1
z_n0n2 0
z_n0n1 1
